Route #1: 18 52 40 7 65 47 27 48 5
Route #2: 8 64 12 55 49 58 24 29
Route #3: 63 56 30 19 22 26 20 53 14
Route #4: 44 50 15 23 32 35
Route #5: 6 46 3 39 43 62 59 21 33
Route #6: 16 28 10 4 36 37
Route #7: 34 2 13 11 9 41 60
Route #8: 38 31 61 51 17 42
Route #9: 54 45 57 25
cost 1409
